set J := A1 A2 A3 B1 B2 B3 S;
set Source := A1 A2 B1 B2;
param Sink := S;
set V['A3'] := A1 A2;
set V['B3'] := B1 B2;
set V['S'] := A3 B3;
set R := 1;
param d := A1 3  A2 9  A3 4  B1 7  B2 6  B3 5  S 0;
param EF := A1 3  A2 9  A3 13  B1 7  B2 6  B3 12  S 13;
param LF := A1 9  A2 9  A3 13  B1 8  B2 8  B3 13  S 13;
param k : 1 :=
	 A1 1  
	 A2 0  
	 A3 0  
	 B1 0  
	 B2 1  
	 B3 0 
	 S  0 ;
param K := 1 1;

end;
